
Value of objective function: 0.02930142

Actual values of the variables:
pL1_div_from_law        0.0293014
comp_pos0                       0
comp_neg0                       0
comp_pos1                       0
comp_neg1                       0
comp_pos2                       0
comp_neg2                       0
comp_pos3                       0
comp_neg3                       0
comp_pos4                       0
comp_neg4                       0
comp_pos5                       0
comp_neg5                       0
comp_pos6               0.0293014
comp_neg6                       0
comp_pos7                       0
comp_neg7                       0
comp_pos8                       0
comp_neg8                       0
comp_pos9                       0
comp_neg9                       0
comp_pos10                      0
comp_neg10                      0
comp_pos11                      0
comp_neg11                      0
comp_pos12                      0
comp_neg12                      0
comp_pos13                      0
comp_neg13                      0
z_c0_t0               1.32138e+10
p0_c0_t0              2.20532e+09
p1_c0_t0              2.48933e+09
p2_c0_t0              8.13047e+09
p3_c0_t0              3.88715e+08
diff0                           0
normdiff0                       0
z_c0_t1               1.47752e+10
p0_c0_t1              1.93547e+09
p1_c0_t1              2.79157e+09
p2_c0_t1              9.56023e+09
p3_c0_t1              4.87921e+08
diff1                           0
normdiff1                       0
z_c1_t0               1.65566e+10
p0_c1_t0              2.25203e+09
p1_c1_t0              3.23055e+09
p2_c1_t0              1.09037e+10
p3_c1_t0              1.70339e+08
diff2                           0
normdiff2                       0
z_c1_t1               1.94959e+10
p0_c1_t1               2.2923e+09
p1_c1_t1              4.59588e+09
p2_c1_t1              1.24334e+10
p3_c1_t1              1.74297e+08
diff3                           0
normdiff3                       0
z_c2_t0               7.24754e+09
p0_c2_t0              7.60762e+08
p1_c2_t0              1.30523e+09
p2_c2_t0              5.03098e+09
p3_c2_t0              1.50576e+08
diff4                           0
normdiff4                       0
z_c2_t1               7.97123e+09
p0_c2_t1              6.23756e+08
p1_c2_t1              1.52564e+09
p2_c2_t1              5.63161e+09
p3_c2_t1              1.90221e+08
diff5                           0
normdiff5                       0
z_c3_t0               1.22612e+10
p0_c3_t0               1.3764e+09
p1_c3_t0              2.23144e+09
p2_c3_t0              8.61688e+09
p3_c3_t0              3.95737e+08
diff6                  3.5927e+08
normdiff6               0.0293014
z_c3_t1               1.42798e+10
p0_c3_t1              1.57241e+09
p1_c3_t1              2.28526e+09
p2_c3_t1              9.60117e+09
p3_c3_t1              8.20933e+08
diff7                           0
normdiff7                       0
z_c4_t0               7.97197e+09
p0_c4_t0              6.07508e+08
p1_c4_t0              2.52197e+09
p2_c4_t0              4.76741e+09
p3_c4_t0              7.50842e+07
diff8                           0
normdiff8                       0
z_c4_t1                8.9819e+09
p0_c4_t1              6.34472e+08
p1_c4_t1              2.32182e+09
p2_c4_t1              5.94495e+09
p3_c4_t1              8.06517e+07
diff9                           0
normdiff9                       0
z_c5_t0               1.00642e+10
p0_c5_t0              1.07132e+09
p1_c5_t0              2.08603e+09
p2_c5_t0              6.85648e+09
p3_c5_t0              5.03208e+07
diff10                          0
normdiff10                      0
z_c5_t1                1.2016e+10
p0_c5_t1              7.90478e+08
p1_c5_t1              2.08693e+09
p2_c5_t1              8.92489e+09
p3_c5_t1               2.1371e+08
diff11                          0
normdiff11                      0
z_c6_t0               1.81204e+10
p0_c6_t0              1.95614e+09
p1_c6_t0              2.66172e+09
p2_c6_t0              1.33382e+10
p3_c6_t0              1.64267e+08
diff12                          0
normdiff12                      0
z_c6_t1               2.06345e+10
p0_c6_t1              2.12442e+09
p1_c6_t1              2.43968e+09
p2_c6_t1              1.59576e+10
p3_c6_t1              1.12748e+08
diff13                          0
normdiff13                      0
